p edge 125 1317 101
e 1 6
e 1 18
e 1 21
e 1 23
e 1 28
e 1 32
e 1 36
e 1 41
e 1 50
e 1 52
e 1 53
e 1 64
e 1 65
e 1 66
e 1 74
e 1 77
e 1 91
e 1 97
e 1 110
e 1 112
e 1 122
e 1 123
e 2 3
e 2 8
e 2 12
e 2 14
e 2 32
e 2 46
e 2 56
e 2 58
e 2 67
e 2 74
e 2 80
e 2 93
e 2 95
e 2 96
e 2 118
e 2 123
e 2 125
e 3 5
e 3 11
e 3 15
e 3 23
e 3 34
e 3 35
e 3 37
e 3 41
e 3 45
e 3 53
e 3 72
e 3 76
e 3 80
e 3 81
e 3 84
e 3 103
e 3 122
e 4 8
e 4 9
e 4 25
e 4 33
e 4 43
e 4 46
e 4 47
e 4 50
e 4 56
e 4 60
e 4 74
e 4 76
e 4 82
e 4 86
e 4 91
e 4 104
e 4 106
e 4 108
e 4 109
e 4 114
e 4 120
e 4 123
e 5 18
e 5 22
e 5 23
e 5 25
e 5 39
e 5 63
e 5 67
e 5 87
e 5 88
e 5 93
e 5 100
e 5 105
e 5 110
e 5 114
e 5 115
e 6 11
e 6 13
e 6 26
e 6 27
e 6 34
e 6 35
e 6 36
e 6 44
e 6 46
e 6 48
e 6 51
e 6 54
e 6 64
e 6 65
e 6 77
e 6 78
e 6 85
e 6 90
e 6 91
e 6 92
e 6 101
e 6 103
e 6 112
e 6 116
e 6 120
e 7 9
e 7 10
e 7 15
e 7 19
e 7 33
e 7 40
e 7 53
e 7 59
e 7 67
e 7 71
e 7 73
e 7 79
e 7 80
e 7 82
e 7 85
e 7 89
e 7 92
e 7 93
e 7 98
e 7 99
e 7 104
e 7 107
e 7 113
e 7 117
e 7 122
e 8 12
e 8 17
e 8 35
e 8 36
e 8 54
e 8 60
e 8 76
e 8 87
e 8 92
e 8 94
e 8 105
e 8 108
e 8 110
e 8 113
e 8 117
e 8 120
e 8 122
e 9 12
e 9 17
e 9 24
e 9 43
e 9 46
e 9 47
e 9 52
e 9 56
e 9 68
e 9 72
e 9 84
e 9 87
e 9 107
e 9 109
e 9 111
e 9 120
e 10 14
e 10 16
e 10 19
e 10 21
e 10 22
e 10 29
e 10 32
e 10 37
e 10 40
e 10 45
e 10 50
e 10 52
e 10 56
e 10 62
e 10 65
e 10 72
e 10 76
e 10 77
e 10 85
e 10 99
e 10 105
e 10 108
e 10 116
e 10 118
e 10 122
e 11 14
e 11 24
e 11 31
e 11 43
e 11 56
e 11 57
e 11 65
e 11 71
e 11 82
e 11 90
e 11 101
e 11 109
e 11 110
e 11 112
e 11 113
e 12 18
e 12 25
e 12 38
e 12 39
e 12 47
e 12 49
e 12 56
e 12 57
e 12 59
e 12 60
e 12 64
e 12 67
e 12 72
e 12 74
e 12 80
e 12 81
e 12 85
e 12 93
e 12 94
e 12 100
e 12 106
e 12 111
e 12 119
e 12 120
e 12 121
e 12 124
e 13 19
e 13 20
e 13 27
e 13 47
e 13 49
e 13 50
e 13 53
e 13 55
e 13 57
e 13 60
e 13 64
e 13 66
e 13 69
e 13 93
e 13 98
e 13 102
e 13 106
e 13 108
e 13 111
e 13 123
e 14 15
e 14 16
e 14 18
e 14 31
e 14 32
e 14 33
e 14 45
e 14 46
e 14 47
e 14 54
e 14 66
e 14 78
e 14 82
e 14 83
e 14 92
e 14 97
e 14 100
e 14 107
e 14 119
e 14 121
e 15 16
e 15 23
e 15 26
e 15 28
e 15 33
e 15 34
e 15 44
e 15 47
e 15 56
e 15 58
e 15 59
e 15 75
e 15 79
e 15 80
e 15 85
e 15 89
e 15 96
e 15 98
e 15 99
e 15 105
e 15 108
e 15 110
e 15 117
e 15 121
e 16 21
e 16 31
e 16 32
e 16 35
e 16 39
e 16 42
e 16 45
e 16 46
e 16 47
e 16 49
e 16 50
e 16 68
e 16 76
e 16 77
e 16 78
e 16 89
e 16 93
e 16 98
e 16 100
e 16 105
e 16 107
e 16 119
e 16 124
e 16 125
e 17 19
e 17 34
e 17 37
e 17 49
e 17 62
e 17 79
e 17 80
e 17 83
e 17 84
e 17 91
e 17 92
e 17 93
e 17 97
e 17 101
e 17 112
e 17 114
e 17 118
e 17 122
e 18 21
e 18 36
e 18 38
e 18 40
e 18 44
e 18 65
e 18 66
e 18 67
e 18 71
e 18 80
e 18 97
e 18 110
e 18 112
e 18 121
e 18 125
e 19 21
e 19 24
e 19 28
e 19 30
e 19 31
e 19 33
e 19 37
e 19 40
e 19 42
e 19 50
e 19 53
e 19 56
e 19 60
e 19 62
e 19 63
e 19 73
e 19 79
e 19 89
e 19 91
e 19 107
e 19 108
e 19 112
e 19 117
e 19 125
e 20 34
e 20 36
e 20 38
e 20 52
e 20 53
e 20 61
e 20 62
e 20 71
e 20 81
e 20 115
e 20 118
e 20 119
e 21 28
e 21 34
e 21 36
e 21 40
e 21 53
e 21 56
e 21 57
e 21 59
e 21 64
e 21 67
e 21 71
e 21 73
e 21 84
e 21 97
e 21 108
e 21 109
e 21 117
e 21 122
e 22 27
e 22 38
e 22 45
e 22 50
e 22 57
e 22 61
e 22 72
e 22 74
e 22 75
e 22 80
e 22 83
e 22 84
e 22 85
e 22 87
e 22 95
e 22 123
e 23 27
e 23 34
e 23 41
e 23 42
e 23 50
e 23 52
e 23 56
e 23 75
e 23 82
e 23 84
e 23 92
e 23 93
e 23 94
e 23 97
e 23 107
e 23 108
e 23 117
e 24 26
e 24 27
e 24 40
e 24 43
e 24 45
e 24 47
e 24 50
e 24 64
e 24 79
e 24 85
e 24 90
e 24 100
e 24 105
e 24 116
e 24 118
e 24 121
e 25 29
e 25 34
e 25 42
e 25 47
e 25 53
e 25 59
e 25 65
e 25 72
e 25 75
e 25 79
e 25 80
e 25 82
e 25 85
e 25 86
e 25 95
e 25 101
e 25 111
e 25 116
e 25 120
e 25 124
e 26 36
e 26 39
e 26 46
e 26 61
e 26 64
e 26 67
e 26 71
e 26 73
e 26 84
e 26 95
e 26 96
e 26 101
e 26 105
e 26 108
e 26 112
e 26 115
e 26 118
e 26 124
e 27 47
e 27 50
e 27 52
e 27 57
e 27 62
e 27 63
e 27 84
e 27 85
e 27 92
e 27 95
e 27 101
e 27 104
e 27 106
e 27 107
e 27 110
e 27 116
e 27 122
e 28 30
e 28 38
e 28 43
e 28 47
e 28 52
e 28 53
e 28 56
e 28 58
e 28 66
e 28 71
e 28 76
e 28 110
e 28 111
e 28 123
e 28 125
e 29 35
e 29 38
e 29 52
e 29 54
e 29 57
e 29 58
e 29 60
e 29 68
e 29 72
e 29 76
e 29 83
e 29 91
e 29 103
e 29 107
e 29 111
e 29 125
e 30 32
e 30 47
e 30 49
e 30 54
e 30 56
e 30 57
e 30 58
e 30 59
e 30 61
e 30 64
e 30 65
e 30 67
e 30 74
e 30 75
e 30 79
e 30 94
e 30 106
e 30 112
e 30 113
e 31 37
e 31 38
e 31 40
e 31 43
e 31 50
e 31 55
e 31 63
e 31 72
e 31 75
e 31 80
e 31 98
e 31 119
e 32 34
e 32 42
e 32 48
e 32 51
e 32 58
e 32 62
e 32 67
e 32 72
e 32 82
e 32 86
e 32 87
e 32 92
e 32 98
e 32 103
e 32 112
e 32 118
e 32 119
e 32 124
e 32 125
e 33 40
e 33 49
e 33 50
e 33 52
e 33 57
e 33 63
e 33 65
e 33 70
e 33 77
e 33 85
e 33 88
e 33 89
e 33 101
e 33 102
e 33 109
e 33 112
e 34 38
e 34 41
e 34 43
e 34 54
e 34 55
e 34 57
e 34 59
e 34 68
e 34 70
e 34 73
e 34 86
e 34 90
e 34 92
e 34 95
e 34 99
e 34 100
e 34 102
e 34 105
e 34 125
e 35 42
e 35 44
e 35 45
e 35 50
e 35 76
e 35 81
e 35 86
e 35 99
e 35 115
e 35 117
e 35 124
e 36 39
e 36 42
e 36 63
e 36 66
e 36 71
e 36 74
e 36 87
e 36 92
e 36 102
e 36 110
e 36 112
e 36 114
e 36 115
e 36 116
e 37 39
e 37 43
e 37 46
e 37 50
e 37 51
e 37 63
e 37 65
e 37 74
e 37 86
e 37 88
e 37 94
e 37 100
e 37 102
e 37 108
e 37 111
e 37 113
e 37 120
e 37 121
e 37 125
e 38 39
e 38 44
e 38 48
e 38 56
e 38 63
e 38 65
e 38 70
e 38 83
e 38 84
e 38 86
e 38 87
e 38 98
e 38 99
e 38 104
e 38 106
e 38 107
e 38 118
e 38 125
e 39 40
e 39 53
e 39 58
e 39 63
e 39 64
e 39 68
e 39 72
e 39 90
e 39 92
e 39 97
e 39 99
e 39 104
e 39 105
e 39 112
e 39 117
e 40 42
e 40 48
e 40 60
e 40 65
e 40 68
e 40 73
e 40 75
e 40 77
e 40 82
e 40 85
e 40 87
e 40 91
e 40 94
e 40 97
e 40 98
e 40 110
e 40 115
e 40 117
e 41 49
e 41 50
e 41 53
e 41 57
e 41 65
e 41 67
e 41 70
e 41 74
e 41 85
e 41 87
e 41 91
e 41 92
e 41 94
e 41 95
e 41 96
e 41 106
e 41 113
e 41 120
e 41 124
e 41 125
e 42 56
e 42 65
e 42 69
e 42 80
e 42 81
e 42 94
e 42 100
e 42 102
e 43 47
e 43 57
e 43 59
e 43 61
e 43 69
e 43 72
e 43 73
e 43 74
e 43 76
e 43 90
e 43 98
e 43 106
e 43 109
e 43 119
e 44 45
e 44 50
e 44 59
e 44 62
e 44 83
e 44 84
e 44 85
e 44 93
e 44 118
e 44 121
e 44 122
e 44 124
e 45 58
e 45 63
e 45 64
e 45 67
e 45 85
e 45 86
e 45 89
e 45 98
e 45 108
e 45 113
e 45 120
e 45 122
e 46 49
e 46 53
e 46 63
e 46 64
e 46 69
e 46 71
e 46 77
e 46 81
e 46 82
e 46 110
e 46 111
e 46 117
e 46 122
e 46 123
e 47 48
e 47 60
e 47 77
e 47 84
e 47 89
e 47 90
e 47 95
e 47 100
e 47 112
e 47 114
e 47 117
e 47 118
e 47 124
e 48 51
e 48 58
e 48 60
e 48 69
e 48 75
e 48 77
e 48 82
e 48 87
e 48 88
e 48 90
e 48 95
e 48 108
e 48 117
e 49 55
e 49 56
e 49 65
e 49 70
e 49 74
e 49 75
e 49 86
e 49 87
e 49 90
e 49 92
e 49 94
e 49 96
e 49 102
e 49 106
e 49 109
e 49 123
e 49 124
e 50 63
e 50 68
e 50 78
e 50 82
e 50 100
e 50 107
e 50 120
e 50 124
e 51 52
e 51 58
e 51 66
e 51 72
e 51 80
e 51 86
e 51 102
e 51 104
e 51 107
e 51 110
e 51 122
e 52 59
e 52 69
e 52 79
e 52 81
e 52 89
e 52 91
e 52 101
e 52 102
e 52 105
e 52 113
e 52 122
e 52 125
e 53 59
e 53 63
e 53 65
e 53 74
e 53 81
e 53 89
e 53 92
e 53 94
e 53 95
e 53 96
e 53 105
e 53 106
e 53 110
e 54 56
e 54 65
e 54 72
e 54 77
e 54 78
e 54 80
e 54 87
e 54 99
e 54 109
e 54 110
e 54 111
e 54 112
e 54 115
e 54 117
e 54 123
e 55 59
e 55 63
e 55 64
e 55 73
e 55 74
e 55 83
e 55 89
e 55 93
e 55 106
e 55 108
e 55 119
e 56 79
e 56 80
e 56 85
e 56 88
e 56 94
e 56 99
e 56 109
e 56 112
e 56 117
e 57 58
e 57 60
e 57 61
e 57 63
e 57 65
e 57 67
e 57 75
e 57 79
e 57 80
e 57 81
e 57 85
e 57 86
e 57 89
e 57 98
e 57 104
e 57 106
e 57 112
e 57 114
e 58 66
e 58 76
e 58 78
e 58 83
e 58 87
e 58 89
e 58 93
e 58 98
e 58 101
e 58 103
e 58 107
e 58 109
e 58 121
e 59 62
e 59 79
e 59 81
e 59 83
e 59 88
e 59 98
e 59 107
e 59 114
e 59 121
e 59 123
e 59 125
e 60 66
e 60 67
e 60 87
e 60 88
e 60 91
e 60 99
e 60 103
e 60 104
e 60 110
e 60 113
e 60 115
e 61 72
e 61 74
e 61 76
e 61 78
e 61 80
e 61 83
e 61 85
e 61 90
e 61 91
e 61 95
e 61 104
e 61 119
e 62 66
e 62 88
e 62 93
e 62 95
e 62 107
e 62 116
e 62 120
e 62 121
e 63 71
e 63 75
e 63 82
e 63 85
e 63 91
e 63 112
e 63 116
e 63 120
e 63 121
e 63 122
e 63 123
e 64 65
e 64 75
e 64 76
e 64 78
e 64 79
e 64 81
e 64 89
e 64 91
e 64 96
e 64 113
e 64 114
e 64 121
e 64 123
e 65 69
e 65 80
e 65 97
e 65 111
e 65 115
e 65 116
e 65 117
e 65 118
e 65 121
e 66 67
e 66 68
e 66 86
e 66 102
e 66 103
e 66 117
e 66 122
e 66 123
e 67 78
e 67 80
e 67 87
e 67 93
e 67 98
e 67 100
e 67 105
e 67 115
e 67 125
e 68 76
e 68 77
e 68 82
e 68 85
e 68 92
e 68 114
e 69 75
e 69 85
e 69 87
e 69 89
e 69 94
e 69 100
e 69 101
e 69 103
e 69 117
e 69 118
e 69 119
e 70 79
e 70 84
e 70 94
e 70 99
e 70 105
e 70 107
e 70 109
e 70 120
e 70 121
e 71 79
e 71 80
e 71 86
e 71 96
e 71 123
e 72 75
e 72 77
e 72 88
e 72 90
e 72 95
e 72 108
e 72 111
e 73 86
e 73 88
e 73 89
e 73 99
e 73 105
e 73 107
e 73 115
e 73 116
e 74 77
e 74 81
e 74 86
e 74 96
e 74 104
e 74 118
e 74 124
e 75 77
e 75 79
e 75 85
e 75 92
e 75 107
e 75 110
e 75 116
e 75 125
e 76 91
e 76 92
e 76 93
e 76 95
e 76 99
e 76 114
e 76 116
e 76 121
e 76 122
e 77 80
e 77 91
e 77 97
e 77 103
e 77 107
e 77 122
e 78 83
e 78 92
e 78 94
e 78 101
e 78 102
e 78 103
e 78 120
e 78 121
e 79 80
e 79 85
e 79 88
e 79 98
e 79 102
e 79 108
e 79 113
e 79 116
e 80 83
e 80 88
e 80 96
e 80 101
e 80 110
e 80 112
e 80 121
e 81 82
e 81 85
e 81 106
e 81 108
e 81 113
e 81 114
e 81 118
e 81 125
e 82 87
e 82 103
e 82 122
e 83 86
e 83 98
e 83 104
e 83 114
e 83 119
e 83 123
e 84 85
e 84 91
e 84 100
e 84 101
e 84 102
e 84 103
e 84 108
e 84 112
e 84 115
e 84 122
e 85 92
e 85 93
e 85 96
e 85 97
e 85 103
e 85 111
e 85 123
e 86 87
e 86 92
e 86 108
e 86 110
e 86 125
e 87 89
e 87 91
e 87 93
e 87 94
e 87 102
e 87 104
e 87 108
e 87 112
e 87 120
e 88 91
e 88 92
e 88 104
e 89 98
e 89 111
e 90 102
e 90 105
e 90 106
e 90 108
e 90 115
e 91 93
e 91 94
e 91 95
e 91 100
e 91 114
e 91 123
e 92 94
e 92 105
e 92 112
e 92 118
e 92 123
e 93 96
e 93 103
e 93 116
e 93 117
e 93 118
e 93 123
e 94 97
e 94 100
e 94 110
e 94 111
e 94 116
e 94 118
e 94 125
e 95 98
e 95 104
e 95 118
e 95 122
e 96 105
e 96 106
e 96 112
e 96 123
e 97 115
e 97 117
e 97 123
e 98 105
e 98 116
e 98 117
e 98 123
e 98 124
e 99 102
e 99 104
e 99 108
e 99 118
e 99 122
e 100 103
e 100 123
e 100 124
e 101 108
e 101 109
e 101 110
e 101 114
e 101 122
e 102 114
e 102 118
e 103 112
e 104 107
e 104 109
e 104 110
e 104 111
e 104 115
e 104 116
e 104 124
e 105 111
e 105 119
e 105 125
e 106 107
e 106 110
e 106 113
e 106 115
e 106 117
e 106 118
e 106 119
e 107 108
e 107 110
e 107 119
e 107 120
e 107 121
e 107 125
e 108 109
e 108 111
e 109 114
e 109 122
e 110 113
e 110 115
e 110 123
e 112 113
e 113 114
e 113 115
e 113 116
e 113 125
e 114 115
e 114 122
e 114 125
e 115 121
e 115 123
e 117 124
e 117 125
e 119 122
e 119 124
e 121 122
e 121 124
e 122 123
